nbNodes = 106;
s = <0, 0>;
t = <8, 13>;

Nodes = {
	<0,0> // Sommet au point (0,0)
	<3,0> // Sommet au point (3,0)
	<4,0> // Sommet au point (4,0)
	<5,0> // Sommet au point (5,0)
	<7,0> // Sommet au point (7,0)
	<8,0> // Sommet au point (8,0)
	<9,0> // Sommet au point (9,0)
	<5,1> // Sommet au point (5,1)
	<6,1> // Sommet au point (6,1)
	<7,1> // Sommet au point (7,1)
	<8,1> // Sommet au point (8,1)
	<9,1> // Sommet au point (9,1)
	<0,2> // Sommet au point (0,2)
	<1,2> // Sommet au point (1,2)
	<2,2> // Sommet au point (2,2)
	<4,2> // Sommet au point (4,2)
	<7,2> // Sommet au point (7,2)
	<8,2> // Sommet au point (8,2)
	<9,2> // Sommet au point (9,2)
	<0,3> // Sommet au point (0,3)
	<1,3> // Sommet au point (1,3)
	<4,3> // Sommet au point (4,3)
	<5,3> // Sommet au point (5,3)
	<7,3> // Sommet au point (7,3)
	<8,3> // Sommet au point (8,3)
	<9,3> // Sommet au point (9,3)
	<0,4> // Sommet au point (0,4)
	<2,4> // Sommet au point (2,4)
	<3,4> // Sommet au point (3,4)
	<4,4> // Sommet au point (4,4)
	<5,4> // Sommet au point (5,4)
	<7,4> // Sommet au point (7,4)
	<8,4> // Sommet au point (8,4)
	<9,4> // Sommet au point (9,4)
	<0,5> // Sommet au point (0,5)
	<3,5> // Sommet au point (3,5)
	<4,5> // Sommet au point (4,5)
	<7,5> // Sommet au point (7,5)
	<8,5> // Sommet au point (8,5)
	<9,5> // Sommet au point (9,5)
	<0,6> // Sommet au point (0,6)
	<1,6> // Sommet au point (1,6)
	<3,6> // Sommet au point (3,6)
	<4,6> // Sommet au point (4,6)
	<5,6> // Sommet au point (5,6)
	<6,6> // Sommet au point (6,6)
	<7,6> // Sommet au point (7,6)
	<8,6> // Sommet au point (8,6)
	<9,6> // Sommet au point (9,6)
	<1,7> // Sommet au point (1,7)
	<4,7> // Sommet au point (4,7)
	<6,7> // Sommet au point (6,7)
	<7,7> // Sommet au point (7,7)
	<8,7> // Sommet au point (8,7)
	<9,7> // Sommet au point (9,7)
	<0,8> // Sommet au point (0,8)
	<3,8> // Sommet au point (3,8)
	<4,8> // Sommet au point (4,8)
	<5,8> // Sommet au point (5,8)
	<7,8> // Sommet au point (7,8)
	<8,8> // Sommet au point (8,8)
	<9,8> // Sommet au point (9,8)
	<1,9> // Sommet au point (1,9)
	<3,9> // Sommet au point (3,9)
	<4,9> // Sommet au point (4,9)
	<7,9> // Sommet au point (7,9)
	<8,9> // Sommet au point (8,9)
	<9,9> // Sommet au point (9,9)
	<0,10> // Sommet au point (0,10)
	<1,10> // Sommet au point (1,10)
	<2,10> // Sommet au point (2,10)
	<3,10> // Sommet au point (3,10)
	<4,10> // Sommet au point (4,10)
	<5,10> // Sommet au point (5,10)
	<6,10> // Sommet au point (6,10)
	<7,10> // Sommet au point (7,10)
	<8,10> // Sommet au point (8,10)
	<9,10> // Sommet au point (9,10)
	<0,11> // Sommet au point (0,11)
	<1,11> // Sommet au point (1,11)
	<2,11> // Sommet au point (2,11)
	<3,11> // Sommet au point (3,11)
	<4,11> // Sommet au point (4,11)
	<5,11> // Sommet au point (5,11)
	<6,11> // Sommet au point (6,11)
	<7,11> // Sommet au point (7,11)
	<8,11> // Sommet au point (8,11)
	<9,11> // Sommet au point (9,11)
	<0,12> // Sommet au point (0,12)
	<1,12> // Sommet au point (1,12)
	<2,12> // Sommet au point (2,12)
	<3,12> // Sommet au point (3,12)
	<4,12> // Sommet au point (4,12)
	<5,12> // Sommet au point (5,12)
	<6,12> // Sommet au point (6,12)
	<8,12> // Sommet au point (8,12)
	<9,12> // Sommet au point (9,12)
	<3,13> // Sommet au point (3,13)
	<4,13> // Sommet au point (4,13)
	<5,13> // Sommet au point (5,13)
	<8,13> // Sommet au point (8,13)
	<1,14> // Sommet au point (1,14)
	<2,14> // Sommet au point (2,14)
	<5,14> // Sommet au point (5,14)
	<6,14> // Sommet au point (6,14)
	<7,14> // Sommet au point (7,14)
};

Arcs = {
	<<0, 2>, <1, 2>, 1.0>
	<<0, 2>, <0, 3>, 1.0>
	<<0, 2>, <1, 3>, 1.4142135623730951>
	<<0, 3>, <1, 3>, 1.0>
	<<0, 3>, <0, 2>, 1.0>
	<<0, 3>, <0, 4>, 1.0>
	<<0, 3>, <1, 2>, 1.4142135623730951>
	<<0, 4>, <0, 3>, 1.0>
	<<0, 4>, <0, 5>, 1.0>
	<<0, 4>, <1, 3>, 1.4142135623730951>
	<<0, 5>, <0, 4>, 1.0>
	<<0, 5>, <0, 6>, 1.0>
	<<0, 5>, <1, 6>, 1.4142135623730951>
	<<0, 6>, <1, 6>, 1.0>
	<<0, 6>, <0, 5>, 1.0>
	<<0, 6>, <1, 7>, 1.4142135623730951>
	<<0, 8>, <1, 7>, 1.4142135623730951>
	<<0, 8>, <1, 9>, 1.4142135623730951>
	<<0, 10>, <1, 10>, 1.0>
	<<0, 10>, <0, 11>, 1.0>
	<<0, 10>, <1, 9>, 1.4142135623730951>
	<<0, 10>, <1, 11>, 1.4142135623730951>
	<<0, 11>, <1, 11>, 1.0>
	<<0, 11>, <0, 10>, 1.0>
	<<0, 11>, <0, 12>, 1.0>
	<<0, 11>, <1, 10>, 1.4142135623730951>
	<<0, 11>, <1, 12>, 1.4142135623730951>
	<<0, 12>, <1, 12>, 1.0>
	<<0, 12>, <0, 11>, 1.0>
	<<0, 12>, <1, 11>, 1.4142135623730951>
	<<1, 2>, <0, 2>, 1.0>
	<<1, 2>, <2, 2>, 1.0>
	<<1, 2>, <1, 3>, 1.0>
	<<1, 2>, <0, 3>, 1.4142135623730951>
	<<1, 3>, <0, 3>, 1.0>
	<<1, 3>, <1, 2>, 1.0>
	<<1, 3>, <0, 2>, 1.4142135623730951>
	<<1, 3>, <0, 4>, 1.4142135623730951>
	<<1, 3>, <2, 2>, 1.4142135623730951>
	<<1, 3>, <2, 4>, 1.4142135623730951>
	<<1, 6>, <0, 6>, 1.0>
	<<1, 6>, <1, 7>, 1.0>
	<<1, 6>, <0, 5>, 1.4142135623730951>
	<<1, 7>, <1, 6>, 1.0>
	<<1, 7>, <0, 6>, 1.4142135623730951>
	<<1, 7>, <0, 8>, 1.4142135623730951>
	<<1, 9>, <1, 10>, 1.0>
	<<1, 9>, <0, 8>, 1.4142135623730951>
	<<1, 9>, <0, 10>, 1.4142135623730951>
	<<1, 9>, <2, 10>, 1.4142135623730951>
	<<1, 10>, <0, 10>, 1.0>
	<<1, 10>, <2, 10>, 1.0>
	<<1, 10>, <1, 9>, 1.0>
	<<1, 10>, <1, 11>, 1.0>
	<<1, 10>, <0, 11>, 1.4142135623730951>
	<<1, 10>, <2, 11>, 1.4142135623730951>
	<<1, 11>, <0, 11>, 1.0>
	<<1, 11>, <2, 11>, 1.0>
	<<1, 11>, <1, 10>, 1.0>
	<<1, 11>, <1, 12>, 1.0>
	<<1, 11>, <0, 10>, 1.4142135623730951>
	<<1, 11>, <0, 12>, 1.4142135623730951>
	<<1, 11>, <2, 10>, 1.4142135623730951>
	<<1, 11>, <2, 12>, 1.4142135623730951>
	<<1, 12>, <0, 12>, 1.0>
	<<1, 12>, <2, 12>, 1.0>
	<<1, 12>, <1, 11>, 1.0>
	<<1, 12>, <0, 11>, 1.4142135623730951>
	<<1, 12>, <2, 11>, 1.4142135623730951>
	<<1, 14>, <2, 14>, 1.0>
	<<2, 2>, <1, 2>, 1.0>
	<<2, 2>, <1, 3>, 1.4142135623730951>
	<<2, 4>, <3, 4>, 1.0>
	<<2, 4>, <1, 3>, 1.4142135623730951>
	<<2, 4>, <3, 5>, 1.4142135623730951>
	<<2, 10>, <1, 10>, 1.0>
	<<2, 10>, <3, 10>, 1.0>
	<<2, 10>, <2, 11>, 1.0>
	<<2, 10>, <1, 9>, 1.4142135623730951>
	<<2, 10>, <1, 11>, 1.4142135623730951>
	<<2, 10>, <3, 9>, 1.4142135623730951>
	<<2, 10>, <3, 11>, 1.4142135623730951>
	<<2, 11>, <1, 11>, 1.0>
	<<2, 11>, <3, 11>, 1.0>
	<<2, 11>, <2, 10>, 1.0>
	<<2, 11>, <2, 12>, 1.0>
	<<2, 11>, <1, 10>, 1.4142135623730951>
	<<2, 11>, <1, 12>, 1.4142135623730951>
	<<2, 11>, <3, 10>, 1.4142135623730951>
	<<2, 11>, <3, 12>, 1.4142135623730951>
	<<2, 12>, <1, 12>, 1.0>
	<<2, 12>, <3, 12>, 1.0>
	<<2, 12>, <2, 11>, 1.0>
	<<2, 12>, <1, 11>, 1.4142135623730951>
	<<2, 12>, <3, 11>, 1.4142135623730951>
	<<2, 12>, <3, 13>, 1.4142135623730951>
	<<2, 14>, <1, 14>, 1.0>
	<<2, 14>, <3, 13>, 1.4142135623730951>
	<<3, 0>, <4, 0>, 1.0>
	<<3, 4>, <2, 4>, 1.0>
	<<3, 4>, <4, 4>, 1.0>
	<<3, 4>, <3, 5>, 1.0>
	<<3, 4>, <4, 3>, 1.4142135623730951>
	<<3, 4>, <4, 5>, 1.4142135623730951>
	<<3, 5>, <4, 5>, 1.0>
	<<3, 5>, <3, 4>, 1.0>
	<<3, 5>, <3, 6>, 1.0>
	<<3, 5>, <2, 4>, 1.4142135623730951>
	<<3, 5>, <4, 4>, 1.4142135623730951>
	<<3, 5>, <4, 6>, 1.4142135623730951>
	<<3, 6>, <4, 6>, 1.0>
	<<3, 6>, <3, 5>, 1.0>
	<<3, 6>, <4, 5>, 1.4142135623730951>
	<<3, 6>, <4, 7>, 1.4142135623730951>
	<<3, 8>, <4, 8>, 1.0>
	<<3, 8>, <3, 9>, 1.0>
	<<3, 8>, <4, 7>, 1.4142135623730951>
	<<3, 8>, <4, 9>, 1.4142135623730951>
	<<3, 9>, <4, 9>, 1.0>
	<<3, 9>, <3, 8>, 1.0>
	<<3, 9>, <3, 10>, 1.0>
	<<3, 9>, <2, 10>, 1.4142135623730951>
	<<3, 9>, <4, 8>, 1.4142135623730951>
	<<3, 9>, <4, 10>, 1.4142135623730951>
	<<3, 10>, <2, 10>, 1.0>
	<<3, 10>, <4, 10>, 1.0>
	<<3, 10>, <3, 9>, 1.0>
	<<3, 10>, <3, 11>, 1.0>
	<<3, 10>, <2, 11>, 1.4142135623730951>
	<<3, 10>, <4, 9>, 1.4142135623730951>
	<<3, 10>, <4, 11>, 1.4142135623730951>
	<<3, 11>, <2, 11>, 1.0>
	<<3, 11>, <4, 11>, 1.0>
	<<3, 11>, <3, 10>, 1.0>
	<<3, 11>, <3, 12>, 1.0>
	<<3, 11>, <2, 10>, 1.4142135623730951>
	<<3, 11>, <2, 12>, 1.4142135623730951>
	<<3, 11>, <4, 10>, 1.4142135623730951>
	<<3, 11>, <4, 12>, 1.4142135623730951>
	<<3, 12>, <2, 12>, 1.0>
	<<3, 12>, <4, 12>, 1.0>
	<<3, 12>, <3, 11>, 1.0>
	<<3, 12>, <3, 13>, 1.0>
	<<3, 12>, <2, 11>, 1.4142135623730951>
	<<3, 12>, <4, 11>, 1.4142135623730951>
	<<3, 12>, <4, 13>, 1.4142135623730951>
	<<3, 13>, <4, 13>, 1.0>
	<<3, 13>, <3, 12>, 1.0>
	<<3, 13>, <2, 12>, 1.4142135623730951>
	<<3, 13>, <2, 14>, 1.4142135623730951>
	<<3, 13>, <4, 12>, 1.4142135623730951>
	<<4, 0>, <3, 0>, 1.0>
	<<4, 0>, <5, 0>, 1.0>
	<<4, 0>, <5, 1>, 1.4142135623730951>
	<<4, 2>, <4, 3>, 1.0>
	<<4, 2>, <5, 1>, 1.4142135623730951>
	<<4, 2>, <5, 3>, 1.4142135623730951>
	<<4, 3>, <5, 3>, 1.0>
	<<4, 3>, <4, 2>, 1.0>
	<<4, 3>, <4, 4>, 1.0>
	<<4, 3>, <3, 4>, 1.4142135623730951>
	<<4, 3>, <5, 4>, 1.4142135623730951>
	<<4, 4>, <3, 4>, 1.0>
	<<4, 4>, <5, 4>, 1.0>
	<<4, 4>, <4, 3>, 1.0>
	<<4, 4>, <4, 5>, 1.0>
	<<4, 4>, <3, 5>, 1.4142135623730951>
	<<4, 4>, <5, 3>, 1.4142135623730951>
	<<4, 5>, <3, 5>, 1.0>
	<<4, 5>, <4, 4>, 1.0>
	<<4, 5>, <4, 6>, 1.0>
	<<4, 5>, <3, 4>, 1.4142135623730951>
	<<4, 5>, <3, 6>, 1.4142135623730951>
	<<4, 5>, <5, 4>, 1.4142135623730951>
	<<4, 5>, <5, 6>, 1.4142135623730951>
	<<4, 6>, <3, 6>, 1.0>
	<<4, 6>, <5, 6>, 1.0>
	<<4, 6>, <4, 5>, 1.0>
	<<4, 6>, <4, 7>, 1.0>
	<<4, 6>, <3, 5>, 1.4142135623730951>
	<<4, 7>, <4, 6>, 1.0>
	<<4, 7>, <4, 8>, 1.0>
	<<4, 7>, <3, 6>, 1.4142135623730951>
	<<4, 7>, <3, 8>, 1.4142135623730951>
	<<4, 7>, <5, 6>, 1.4142135623730951>
	<<4, 7>, <5, 8>, 1.4142135623730951>
	<<4, 8>, <3, 8>, 1.0>
	<<4, 8>, <5, 8>, 1.0>
	<<4, 8>, <4, 7>, 1.0>
	<<4, 8>, <4, 9>, 1.0>
	<<4, 8>, <3, 9>, 1.4142135623730951>
	<<4, 9>, <3, 9>, 1.0>
	<<4, 9>, <4, 8>, 1.0>
	<<4, 9>, <4, 10>, 1.0>
	<<4, 9>, <3, 8>, 1.4142135623730951>
	<<4, 9>, <3, 10>, 1.4142135623730951>
	<<4, 9>, <5, 8>, 1.4142135623730951>
	<<4, 9>, <5, 10>, 1.4142135623730951>
	<<4, 10>, <3, 10>, 1.0>
	<<4, 10>, <5, 10>, 1.0>
	<<4, 10>, <4, 9>, 1.0>
	<<4, 10>, <4, 11>, 1.0>
	<<4, 10>, <3, 9>, 1.4142135623730951>
	<<4, 10>, <3, 11>, 1.4142135623730951>
	<<4, 10>, <5, 11>, 1.4142135623730951>
	<<4, 11>, <3, 11>, 1.0>
	<<4, 11>, <5, 11>, 1.0>
	<<4, 11>, <4, 10>, 1.0>
	<<4, 11>, <4, 12>, 1.0>
	<<4, 11>, <3, 10>, 1.4142135623730951>
	<<4, 11>, <3, 12>, 1.4142135623730951>
	<<4, 11>, <5, 10>, 1.4142135623730951>
	<<4, 11>, <5, 12>, 1.4142135623730951>
	<<4, 12>, <3, 12>, 1.0>
	<<4, 12>, <5, 12>, 1.0>
	<<4, 12>, <4, 11>, 1.0>
	<<4, 12>, <4, 13>, 1.0>
	<<4, 12>, <3, 11>, 1.4142135623730951>
	<<4, 12>, <3, 13>, 1.4142135623730951>
	<<4, 12>, <5, 11>, 1.4142135623730951>
	<<4, 12>, <5, 13>, 1.4142135623730951>
	<<4, 13>, <3, 13>, 1.0>
	<<4, 13>, <5, 13>, 1.0>
	<<4, 13>, <4, 12>, 1.0>
	<<4, 13>, <3, 12>, 1.4142135623730951>
	<<4, 13>, <5, 12>, 1.4142135623730951>
	<<4, 13>, <5, 14>, 1.4142135623730951>
	<<5, 0>, <4, 0>, 1.0>
	<<5, 0>, <5, 1>, 1.0>
	<<5, 0>, <6, 1>, 1.4142135623730951>
	<<5, 1>, <6, 1>, 1.0>
	<<5, 1>, <5, 0>, 1.0>
	<<5, 1>, <4, 0>, 1.4142135623730951>
	<<5, 1>, <4, 2>, 1.4142135623730951>
	<<5, 3>, <4, 3>, 1.0>
	<<5, 3>, <5, 4>, 1.0>
	<<5, 3>, <4, 2>, 1.4142135623730951>
	<<5, 3>, <4, 4>, 1.4142135623730951>
	<<5, 4>, <4, 4>, 1.0>
	<<5, 4>, <5, 3>, 1.0>
	<<5, 4>, <4, 3>, 1.4142135623730951>
	<<5, 4>, <4, 5>, 1.4142135623730951>
	<<5, 6>, <4, 6>, 1.0>
	<<5, 6>, <6, 6>, 1.0>
	<<5, 6>, <4, 5>, 1.4142135623730951>
	<<5, 6>, <4, 7>, 1.4142135623730951>
	<<5, 6>, <6, 7>, 1.4142135623730951>
	<<5, 8>, <4, 8>, 1.0>
	<<5, 8>, <4, 7>, 1.4142135623730951>
	<<5, 8>, <4, 9>, 1.4142135623730951>
	<<5, 8>, <6, 7>, 1.4142135623730951>
	<<5, 10>, <4, 10>, 1.0>
	<<5, 10>, <6, 10>, 1.0>
	<<5, 10>, <5, 11>, 1.0>
	<<5, 10>, <4, 9>, 1.4142135623730951>
	<<5, 10>, <4, 11>, 1.4142135623730951>
	<<5, 10>, <6, 11>, 1.4142135623730951>
	<<5, 11>, <4, 11>, 1.0>
	<<5, 11>, <6, 11>, 1.0>
	<<5, 11>, <5, 10>, 1.0>
	<<5, 11>, <5, 12>, 1.0>
	<<5, 11>, <4, 10>, 1.4142135623730951>
	<<5, 11>, <4, 12>, 1.4142135623730951>
	<<5, 11>, <6, 10>, 1.4142135623730951>
	<<5, 11>, <6, 12>, 1.4142135623730951>
	<<5, 12>, <4, 12>, 1.0>
	<<5, 12>, <6, 12>, 1.0>
	<<5, 12>, <5, 11>, 1.0>
	<<5, 12>, <5, 13>, 1.0>
	<<5, 12>, <4, 11>, 1.4142135623730951>
	<<5, 12>, <4, 13>, 1.4142135623730951>
	<<5, 12>, <6, 11>, 1.4142135623730951>
	<<5, 13>, <4, 13>, 1.0>
	<<5, 13>, <5, 12>, 1.0>
	<<5, 13>, <5, 14>, 1.0>
	<<5, 13>, <4, 12>, 1.4142135623730951>
	<<5, 13>, <6, 12>, 1.4142135623730951>
	<<5, 13>, <6, 14>, 1.4142135623730951>
	<<5, 14>, <6, 14>, 1.0>
	<<5, 14>, <5, 13>, 1.0>
	<<5, 14>, <4, 13>, 1.4142135623730951>
	<<6, 1>, <5, 1>, 1.0>
	<<6, 1>, <7, 1>, 1.0>
	<<6, 1>, <5, 0>, 1.4142135623730951>
	<<6, 1>, <7, 0>, 1.4142135623730951>
	<<6, 1>, <7, 2>, 1.4142135623730951>
	<<6, 6>, <5, 6>, 1.0>
	<<6, 6>, <7, 6>, 1.0>
	<<6, 6>, <6, 7>, 1.0>
	<<6, 6>, <7, 5>, 1.4142135623730951>
	<<6, 6>, <7, 7>, 1.4142135623730951>
	<<6, 7>, <7, 7>, 1.0>
	<<6, 7>, <6, 6>, 1.0>
	<<6, 7>, <5, 6>, 1.4142135623730951>
	<<6, 7>, <5, 8>, 1.4142135623730951>
	<<6, 7>, <7, 6>, 1.4142135623730951>
	<<6, 7>, <7, 8>, 1.4142135623730951>
	<<6, 10>, <5, 10>, 1.0>
	<<6, 10>, <7, 10>, 1.0>
	<<6, 10>, <6, 11>, 1.0>
	<<6, 10>, <5, 11>, 1.4142135623730951>
	<<6, 10>, <7, 9>, 1.4142135623730951>
	<<6, 10>, <7, 11>, 1.4142135623730951>
	<<6, 11>, <5, 11>, 1.0>
	<<6, 11>, <7, 11>, 1.0>
	<<6, 11>, <6, 10>, 1.0>
	<<6, 11>, <6, 12>, 1.0>
	<<6, 11>, <5, 10>, 1.4142135623730951>
	<<6, 11>, <5, 12>, 1.4142135623730951>
	<<6, 11>, <7, 10>, 1.4142135623730951>
	<<6, 12>, <5, 12>, 1.0>
	<<6, 12>, <6, 11>, 1.0>
	<<6, 12>, <5, 11>, 1.4142135623730951>
	<<6, 12>, <5, 13>, 1.4142135623730951>
	<<6, 12>, <7, 11>, 1.4142135623730951>
	<<6, 14>, <5, 14>, 1.0>
	<<6, 14>, <7, 14>, 1.0>
	<<6, 14>, <5, 13>, 1.4142135623730951>
	<<7, 0>, <8, 0>, 1.0>
	<<7, 0>, <7, 1>, 1.0>
	<<7, 0>, <6, 1>, 1.4142135623730951>
	<<7, 0>, <8, 1>, 1.4142135623730951>
	<<7, 1>, <6, 1>, 1.0>
	<<7, 1>, <8, 1>, 1.0>
	<<7, 1>, <7, 0>, 1.0>
	<<7, 1>, <7, 2>, 1.0>
	<<7, 1>, <8, 0>, 1.4142135623730951>
	<<7, 1>, <8, 2>, 1.4142135623730951>
	<<7, 2>, <8, 2>, 1.0>
	<<7, 2>, <7, 1>, 1.0>
	<<7, 2>, <7, 3>, 1.0>
	<<7, 2>, <6, 1>, 1.4142135623730951>
	<<7, 2>, <8, 1>, 1.4142135623730951>
	<<7, 2>, <8, 3>, 1.4142135623730951>
	<<7, 3>, <8, 3>, 1.0>
	<<7, 3>, <7, 2>, 1.0>
	<<7, 3>, <7, 4>, 1.0>
	<<7, 3>, <8, 2>, 1.4142135623730951>
	<<7, 3>, <8, 4>, 1.4142135623730951>
	<<7, 4>, <8, 4>, 1.0>
	<<7, 4>, <7, 3>, 1.0>
	<<7, 4>, <7, 5>, 1.0>
	<<7, 4>, <8, 3>, 1.4142135623730951>
	<<7, 4>, <8, 5>, 1.4142135623730951>
	<<7, 5>, <8, 5>, 1.0>
	<<7, 5>, <7, 4>, 1.0>
	<<7, 5>, <7, 6>, 1.0>
	<<7, 5>, <6, 6>, 1.4142135623730951>
	<<7, 5>, <8, 4>, 1.4142135623730951>
	<<7, 5>, <8, 6>, 1.4142135623730951>
	<<7, 6>, <6, 6>, 1.0>
	<<7, 6>, <8, 6>, 1.0>
	<<7, 6>, <7, 5>, 1.0>
	<<7, 6>, <7, 7>, 1.0>
	<<7, 6>, <6, 7>, 1.4142135623730951>
	<<7, 6>, <8, 5>, 1.4142135623730951>
	<<7, 6>, <8, 7>, 1.4142135623730951>
	<<7, 7>, <6, 7>, 1.0>
	<<7, 7>, <8, 7>, 1.0>
	<<7, 7>, <7, 6>, 1.0>
	<<7, 7>, <7, 8>, 1.0>
	<<7, 7>, <6, 6>, 1.4142135623730951>
	<<7, 7>, <8, 6>, 1.4142135623730951>
	<<7, 7>, <8, 8>, 1.4142135623730951>
	<<7, 8>, <8, 8>, 1.0>
	<<7, 8>, <7, 7>, 1.0>
	<<7, 8>, <7, 9>, 1.0>
	<<7, 8>, <6, 7>, 1.4142135623730951>
	<<7, 8>, <8, 7>, 1.4142135623730951>
	<<7, 8>, <8, 9>, 1.4142135623730951>
	<<7, 9>, <8, 9>, 1.0>
	<<7, 9>, <7, 8>, 1.0>
	<<7, 9>, <7, 10>, 1.0>
	<<7, 9>, <6, 10>, 1.4142135623730951>
	<<7, 9>, <8, 8>, 1.4142135623730951>
	<<7, 9>, <8, 10>, 1.4142135623730951>
	<<7, 10>, <6, 10>, 1.0>
	<<7, 10>, <8, 10>, 1.0>
	<<7, 10>, <7, 9>, 1.0>
	<<7, 10>, <7, 11>, 1.0>
	<<7, 10>, <6, 11>, 1.4142135623730951>
	<<7, 10>, <8, 9>, 1.4142135623730951>
	<<7, 10>, <8, 11>, 1.4142135623730951>
	<<7, 11>, <6, 11>, 1.0>
	<<7, 11>, <8, 11>, 1.0>
	<<7, 11>, <7, 10>, 1.0>
	<<7, 11>, <6, 10>, 1.4142135623730951>
	<<7, 11>, <6, 12>, 1.4142135623730951>
	<<7, 11>, <8, 10>, 1.4142135623730951>
	<<7, 11>, <8, 12>, 1.4142135623730951>
	<<7, 14>, <6, 14>, 1.0>
	<<7, 14>, <8, 13>, 1.4142135623730951>
	<<8, 0>, <7, 0>, 1.0>
	<<8, 0>, <9, 0>, 1.0>
	<<8, 0>, <8, 1>, 1.0>
	<<8, 0>, <7, 1>, 1.4142135623730951>
	<<8, 0>, <9, 1>, 1.4142135623730951>
	<<8, 1>, <7, 1>, 1.0>
	<<8, 1>, <9, 1>, 1.0>
	<<8, 1>, <8, 0>, 1.0>
	<<8, 1>, <8, 2>, 1.0>
	<<8, 1>, <7, 0>, 1.4142135623730951>
	<<8, 1>, <7, 2>, 1.4142135623730951>
	<<8, 1>, <9, 0>, 1.4142135623730951>
	<<8, 1>, <9, 2>, 1.4142135623730951>
	<<8, 2>, <7, 2>, 1.0>
	<<8, 2>, <9, 2>, 1.0>
	<<8, 2>, <8, 1>, 1.0>
	<<8, 2>, <8, 3>, 1.0>
	<<8, 2>, <7, 1>, 1.4142135623730951>
	<<8, 2>, <7, 3>, 1.4142135623730951>
	<<8, 2>, <9, 1>, 1.4142135623730951>
	<<8, 2>, <9, 3>, 1.4142135623730951>
	<<8, 3>, <7, 3>, 1.0>
	<<8, 3>, <9, 3>, 1.0>
	<<8, 3>, <8, 2>, 1.0>
	<<8, 3>, <8, 4>, 1.0>
	<<8, 3>, <7, 2>, 1.4142135623730951>
	<<8, 3>, <7, 4>, 1.4142135623730951>
	<<8, 3>, <9, 2>, 1.4142135623730951>
	<<8, 3>, <9, 4>, 1.4142135623730951>
	<<8, 4>, <7, 4>, 1.0>
	<<8, 4>, <9, 4>, 1.0>
	<<8, 4>, <8, 3>, 1.0>
	<<8, 4>, <8, 5>, 1.0>
	<<8, 4>, <7, 3>, 1.4142135623730951>
	<<8, 4>, <7, 5>, 1.4142135623730951>
	<<8, 4>, <9, 3>, 1.4142135623730951>
	<<8, 4>, <9, 5>, 1.4142135623730951>
	<<8, 5>, <7, 5>, 1.0>
	<<8, 5>, <9, 5>, 1.0>
	<<8, 5>, <8, 4>, 1.0>
	<<8, 5>, <8, 6>, 1.0>
	<<8, 5>, <7, 4>, 1.4142135623730951>
	<<8, 5>, <7, 6>, 1.4142135623730951>
	<<8, 5>, <9, 4>, 1.4142135623730951>
	<<8, 5>, <9, 6>, 1.4142135623730951>
	<<8, 6>, <7, 6>, 1.0>
	<<8, 6>, <9, 6>, 1.0>
	<<8, 6>, <8, 5>, 1.0>
	<<8, 6>, <8, 7>, 1.0>
	<<8, 6>, <7, 5>, 1.4142135623730951>
	<<8, 6>, <7, 7>, 1.4142135623730951>
	<<8, 6>, <9, 5>, 1.4142135623730951>
	<<8, 6>, <9, 7>, 1.4142135623730951>
	<<8, 7>, <7, 7>, 1.0>
	<<8, 7>, <9, 7>, 1.0>
	<<8, 7>, <8, 6>, 1.0>
	<<8, 7>, <8, 8>, 1.0>
	<<8, 7>, <7, 6>, 1.4142135623730951>
	<<8, 7>, <7, 8>, 1.4142135623730951>
	<<8, 7>, <9, 6>, 1.4142135623730951>
	<<8, 7>, <9, 8>, 1.4142135623730951>
	<<8, 8>, <7, 8>, 1.0>
	<<8, 8>, <9, 8>, 1.0>
	<<8, 8>, <8, 7>, 1.0>
	<<8, 8>, <8, 9>, 1.0>
	<<8, 8>, <7, 7>, 1.4142135623730951>
	<<8, 8>, <7, 9>, 1.4142135623730951>
	<<8, 8>, <9, 7>, 1.4142135623730951>
	<<8, 8>, <9, 9>, 1.4142135623730951>
	<<8, 9>, <7, 9>, 1.0>
	<<8, 9>, <9, 9>, 1.0>
	<<8, 9>, <8, 8>, 1.0>
	<<8, 9>, <8, 10>, 1.0>
	<<8, 9>, <7, 8>, 1.4142135623730951>
	<<8, 9>, <7, 10>, 1.4142135623730951>
	<<8, 9>, <9, 8>, 1.4142135623730951>
	<<8, 9>, <9, 10>, 1.4142135623730951>
	<<8, 10>, <7, 10>, 1.0>
	<<8, 10>, <9, 10>, 1.0>
	<<8, 10>, <8, 9>, 1.0>
	<<8, 10>, <8, 11>, 1.0>
	<<8, 10>, <7, 9>, 1.4142135623730951>
	<<8, 10>, <7, 11>, 1.4142135623730951>
	<<8, 10>, <9, 9>, 1.4142135623730951>
	<<8, 10>, <9, 11>, 1.4142135623730951>
	<<8, 11>, <7, 11>, 1.0>
	<<8, 11>, <9, 11>, 1.0>
	<<8, 11>, <8, 10>, 1.0>
	<<8, 11>, <8, 12>, 1.0>
	<<8, 11>, <7, 10>, 1.4142135623730951>
	<<8, 11>, <9, 10>, 1.4142135623730951>
	<<8, 11>, <9, 12>, 1.4142135623730951>
	<<8, 12>, <9, 12>, 1.0>
	<<8, 12>, <8, 11>, 1.0>
	<<8, 12>, <8, 13>, 1.0>
	<<8, 12>, <7, 11>, 1.4142135623730951>
	<<8, 12>, <9, 11>, 1.4142135623730951>
	<<8, 13>, <8, 12>, 1.0>
	<<8, 13>, <7, 14>, 1.4142135623730951>
	<<8, 13>, <9, 12>, 1.4142135623730951>
	<<9, 0>, <8, 0>, 1.0>
	<<9, 0>, <9, 1>, 1.0>
	<<9, 0>, <8, 1>, 1.4142135623730951>
	<<9, 1>, <8, 1>, 1.0>
	<<9, 1>, <9, 0>, 1.0>
	<<9, 1>, <9, 2>, 1.0>
	<<9, 1>, <8, 0>, 1.4142135623730951>
	<<9, 1>, <8, 2>, 1.4142135623730951>
	<<9, 2>, <8, 2>, 1.0>
	<<9, 2>, <9, 1>, 1.0>
	<<9, 2>, <9, 3>, 1.0>
	<<9, 2>, <8, 1>, 1.4142135623730951>
	<<9, 2>, <8, 3>, 1.4142135623730951>
	<<9, 3>, <8, 3>, 1.0>
	<<9, 3>, <9, 2>, 1.0>
	<<9, 3>, <9, 4>, 1.0>
	<<9, 3>, <8, 2>, 1.4142135623730951>
	<<9, 3>, <8, 4>, 1.4142135623730951>
	<<9, 4>, <8, 4>, 1.0>
	<<9, 4>, <9, 3>, 1.0>
	<<9, 4>, <9, 5>, 1.0>
	<<9, 4>, <8, 3>, 1.4142135623730951>
	<<9, 4>, <8, 5>, 1.4142135623730951>
	<<9, 5>, <8, 5>, 1.0>
	<<9, 5>, <9, 4>, 1.0>
	<<9, 5>, <9, 6>, 1.0>
	<<9, 5>, <8, 4>, 1.4142135623730951>
	<<9, 5>, <8, 6>, 1.4142135623730951>
	<<9, 6>, <8, 6>, 1.0>
	<<9, 6>, <9, 5>, 1.0>
	<<9, 6>, <9, 7>, 1.0>
	<<9, 6>, <8, 5>, 1.4142135623730951>
	<<9, 6>, <8, 7>, 1.4142135623730951>
	<<9, 7>, <8, 7>, 1.0>
	<<9, 7>, <9, 6>, 1.0>
	<<9, 7>, <9, 8>, 1.0>
	<<9, 7>, <8, 6>, 1.4142135623730951>
	<<9, 7>, <8, 8>, 1.4142135623730951>
	<<9, 8>, <8, 8>, 1.0>
	<<9, 8>, <9, 7>, 1.0>
	<<9, 8>, <9, 9>, 1.0>
	<<9, 8>, <8, 7>, 1.4142135623730951>
	<<9, 8>, <8, 9>, 1.4142135623730951>
	<<9, 9>, <8, 9>, 1.0>
	<<9, 9>, <9, 8>, 1.0>
	<<9, 9>, <9, 10>, 1.0>
	<<9, 9>, <8, 8>, 1.4142135623730951>
	<<9, 9>, <8, 10>, 1.4142135623730951>
	<<9, 10>, <8, 10>, 1.0>
	<<9, 10>, <9, 9>, 1.0>
	<<9, 10>, <9, 11>, 1.0>
	<<9, 10>, <8, 9>, 1.4142135623730951>
	<<9, 10>, <8, 11>, 1.4142135623730951>
	<<9, 11>, <8, 11>, 1.0>
	<<9, 11>, <9, 10>, 1.0>
	<<9, 11>, <9, 12>, 1.0>
	<<9, 11>, <8, 10>, 1.4142135623730951>
	<<9, 11>, <8, 12>, 1.4142135623730951>
	<<9, 12>, <8, 12>, 1.0>
	<<9, 12>, <9, 11>, 1.0>
	<<9, 12>, <8, 11>, 1.4142135623730951>
	<<9, 12>, <8, 13>, 1.4142135623730951>
};
